minizinc/sudoku_problems2/sudoku_p54.dzn
%
% sudoku_p54.dzn
% See http://www.hakank.org/minizinc/sudoku_gcc.mzn
% 
% This problem is problem 54 from
% Gecode's sudoku.cpp
% http://www.gecode.org/gecode-doc-latest/sudoku_8cpp-source.html
% 
x = array2d(1..n, 1..n, [   
% http://janko.at/Raetsel/Sudoku/501.a.htm
% 54
  _,  _, 14,  3,  _,  7,  _,  1,  _,  5,  _,  6,  _, 11,  _,  _,
  _,  _,  _,  _, 16,  8,  5, 11,  9,  2,  _, 15, 14,  _,  _,  _,
 12,  _,  _,  _,  4,  _,  3,  6, 10,  _,  _,  _,  _,  _,  _,  2,
  _,  4,  _, 11, 10,  _,  _,  _,  _,  _,  _, 16,  7,  _,  _, 12,
  4,  8,  _,  2, 14,  _,  _,  _,  5, 16,  _,  9, 10, 13, 11,  _,
  _,  _,  _,  _,  _, 11,  _,  _,  _, 12,  4,  _,  _,  _,  9, 14,
  9, 10,  _,  _, 15,  4,  2,  _, 14,  1,  _,  _,  _,  5, 12,  _,
  _,  5, 12,  _,  7,  _,  9, 16,  8,  _,  _,  _,  _,  4,  1,  3,
 11, 14,  8,  _,  _,  _,  _,  2,  6, 10,  _, 12,  _, 16,  3,  _,
  _, 15, 13,  _,  _,  _,  7, 14,  _,  9,  3,  1,  _,  _,  5,  6,
 10, 12,  _,  _,  _, 16,  6,  _,  _,  _,  2,  _,  _,  _,  _,  _,
  _,  1,  3,  6,  9,  _,  8,  5,  _,  _,  _, 11, 13,  _, 10,  7,
 14,  _,  _, 10,  6,  _,  _,  _,  _,  _,  _,  5, 12,  _,  7,  _,
  3,  _,  _,  _,  _,  _,  _, 10,  7, 15,  _, 14,  _,  _,  _,  5,
  _,  _,  _,  5,  1,  _, 16,  7, 12, 13, 10,  2,  _,  _,  _,  _,
  _,  _, 16,  _, 12,  _, 11,  _,  3,  _,  1,  _,  9, 10,  _,  _
]);

n = 16;


